CMPL model generation - running

CMPL version: 1.11.0
Authors: Thomas Schleiff, Mike Steglich
Distributed under the GPLv3 

create model instance ...
write model instance ...
CMPL model generation - finished

Solver - running


Welcome to IBM(R) ILOG(R) CPLEX(R) Interactive Optimizer 12.7.1.0
  with Simplex, Mixed Integer & Barrier Optimizers
5725-A06 5725-A29 5724-Y48 5724-Y49 5724-Y54 5724-Y55 5655-Y21
Copyright IBM Corp. 1988, 2017.  All Rights Reserved.

Type 'help' for a list of available commands.
Type 'help' followed by a command name for more
information on commands.

CPLEX> Specified objective sense: MINIMIZE
Selected objective  name:  line[1]
Selected RHS        name:  RHS
Selected bound      name:  BOUND
Problem '/tmp/cmpl.T24649.mps' read.
Read time = 0.06 sec. (10.14 ticks)
CPLEX> CPXPARAM_Read_APIEncoding                        "UTF-8"
Tried aggregator 3 times.
MIP Presolve eliminated 23787 rows and 37150 columns.
MIP Presolve modified 425 coefficients.
Aggregator did 954 substitutions.
Reduced MIP has 3181 rows, 4351 columns, and 12869 nonzeros.
Reduced MIP has 4141 binaries, 0 generals, 0 SOSs, and 0 indicators.
Presolve time = 0.06 sec. (50.77 ticks)
Found incumbent of value 2939.507892 after 0.12 sec. (89.66 ticks)
Probing time = 0.01 sec. (2.89 ticks)
Tried aggregator 1 time.
MIP Presolve eliminated 0 rows and 2 columns.
Reduced MIP has 3181 rows, 4349 columns, and 12865 nonzeros.
Reduced MIP has 4349 binaries, 0 generals, 0 SOSs, and 0 indicators.
Presolve time = 0.02 sec. (10.64 ticks)
Probing fixed 19 vars, tightened 0 bounds.
Probing time = 0.02 sec. (5.84 ticks)
Clique table members: 8025.
MIP emphasis: balance optimality and feasibility.
MIP search method: dynamic search.
Parallel mode: none, using 1 thread.
Root relaxation solution time = 0.01 sec. (10.09 ticks)

        Nodes                                         Cuts/
   Node  Left     Objective  IInf  Best Integer    Best Bound    ItCnt     Gap

*     0+    0                         2939.5079       -3.9690           100.14%
      0     0      610.5151     1     2939.5079      610.5151      445   79.23%
*     0+    0                          610.5228      610.5151             0.00%
      0     0        cutoff            610.5228      610.5151      445    0.00%
Elapsed time = 0.21 sec. (131.59 ticks, tree = 0.01 MB, solutions = 2)

Root node processing (before b&c):
  Real time             =    0.22 sec. (133.13 ticks)
Sequential b&c:
  Real time             =    0.00 sec. (0.00 ticks)
                          ------------
Total (root+branch&cut) =    0.22 sec. (133.13 ticks)

Solution pool: 2 solutions saved.

MIP - Integer optimal solution:  Objective =  6.1052284700e+02
Solution time =    0.22 sec.  Iterations = 445  Nodes = 0
Deterministic time = 133.25 ticks  (607.77 ticks/sec)

CPLEX> Incumbent solution written to file '/tmp/cmpl.T24649.gsol'.
CPLEX> 
CMPL: Time used for model generation: 1 seconds
CMPL: Time used for solving the model: 1 seconds


Solution written to ASCII file: results/output_generated_conf_0.8/2017-05-01-5/fair-nonlinear.sol

Solver - finished
